
Gurobi 12.0.1 (win64, C++) logging started Tue Apr 22 09:15:28 2025

Set parameter Username
Set parameter LicenseID to value 2618661
Academic license - for non-commercial use only - expires 2026-02-05
Set parameter Threads to value 8
Set parameter LazyConstraints to value 1
Set parameter PreCrush to value 1
Set parameter Seed to value 10
Set parameter Cuts to value -1
Set parameter TimeLimit to value 28800
Set parameter NumericFocus to value 0
Set parameter SolutionLimit to value 10000
Gurobi Optimizer version 12.0.1 build v12.0.1rc0 (win64 - Windows Server 2022.0 (20348.2))

CPU model: AMD EPYC 7513 32-Core Processor, instruction set [SSE2|AVX|AVX2]
Thread count: 18 physical cores, 18 logical processors, using up to 8 threads

Non-default parameters:
SolutionLimit  10000
TimeLimit  28800
PreCrush  1
Seed  10
Threads  8
LazyConstraints  1

Optimize a model with 277 rows, 529 columns and 1518 nonzeros
Model fingerprint: 0x635e650c
Variable types: 0 continuous, 529 integer (529 binary)
Coefficient statistics:
  Matrix range     [1e+00, 1e+00]
  Objective range  [4e+00, 1e+02]
  Bounds range     [1e+00, 1e+00]
  RHS range        [1e+00, 4e+00]

User MIP start produced solution with objective 726.266 (0.00s)
Loaded user MIP start with objective 726.266

Presolve removed 6 rows and 33 columns
Presolve time: 0.00s
Presolved: 271 rows, 496 columns, 1422 nonzeros
Variable types: 0 continuous, 496 integer (496 binary)

Root relaxation: objective 5.577212e+02, 79 iterations, 0.00 seconds (0.00 work units)

    Nodes    |    Current Node    |     Objective Bounds      |     Work
 Expl Unexpl |  Obj  Depth IntInf | Incumbent    BestBd   Gap | It/Node Time

     0     0  557.72123    0    -  726.26559  557.72123  23.2%     -    0s
     0     0  565.67595    0    -  726.26559  565.67595  22.1%     -    0s
     0     0  566.12691    0    -  726.26559  566.12691  22.0%     -    0s
     0     0  574.35112    0    -  726.26559  574.35112  20.9%     -    0s
     0     0  585.18964    0   41  726.26559  585.18964  19.4%     -    0s
     0     0  595.95720    0    -  726.26559  595.95720  17.9%     -    0s
     0     0  598.36939    0   41  726.26559  598.36939  17.6%     -    0s
     0     0  600.79062    0   16  726.26559  600.79062  17.3%     -    0s
     0     0  619.61318    0   14  726.26559  619.61318  14.7%     -    0s
     0     0  624.41372    0   14  726.26559  624.41372  14.0%     -    0s
     0     0  626.97754    0   27  726.26559  626.97754  13.7%     -    0s
     0     0  628.86983    0   27  726.26559  628.86983  13.4%     -    0s
     0     0  628.86983    0   21  726.26559  628.86983  13.4%     -    0s
     0     2  628.86983    0   21  726.26559  628.86983  13.4%     -    0s
*  186   198              19     681.8805647  637.36518  6.53%  19.8    0s
H  217   197                     680.0806730  637.36518  6.28%  19.3    0s
*  518   424              21     674.1598232  641.17351  4.89%  18.6    1s
*  522   424              22     667.0873172  641.17351  3.88%  18.6    1s
*  702   429              21     666.2618561  643.99335  3.34%  17.9    1s
* 1048   433              15     664.4619644  648.95431  2.33%  18.0    1s

Cutting planes:
  Lazy constraints: 931

Explored 2197 nodes (34643 simplex iterations) in 1.82 seconds (1.22 work units)
Thread count was 8 (of 18 available processors)

Solution count 7: 664.462 666.262 667.087 ... 726.266

Optimal solution found (tolerance 1.00e-04)
Best objective 6.644619643811e+02, best bound 6.644619643811e+02, gap 0.0000%

User-callback calls 4866, time in user-callback 0.64 sec
### START EXACT APPROACH ###
ProblemVariant: 6
### START PREPROCESSING ###
## Start infeasible path procedure ## 
Deleted arcs: 10
Infeasible tail paths: 0
Infeasible 2-node combinations: 5
Deleted arcs: 10
Infeasible tail paths: 0
Infeasible 2-node combinations: 5
## Start start solution procedure ##
Start solution with 4 Vehicles and total costs 726.266 in 0.0021841 s.
### END PREPROCESSING ###
Route 0 0-9-13-6-1-2-3-16-15-17-14-0 : weight util 0.620889 | volume util 0.963556 | 
Route 1 0-10-11-0 : weight util 0.961111 | volume util 0.133333 | 
Route 2 0-18-19-22-20-0 : weight util 0.287778 | volume util 0.751311 | 
Route 3 0-21-4-5-8-7-12-0 : weight util 0.394444 | volume util 0.981667 | 
